NAME : B-n52-k7.441188.tour
COMMENT : Length = 441188
COMMENT : Found by LKH [Keld Helsgaun] Sun Dec 17 19:10:14 2017
TYPE : TOUR
DIMENSION : 58
TOUR_SECTION
1
5
46
24
13
51
23
27
18
50
54
41
43
21
31
19
2
55
42
26
37
7
48
38
53
36
34
8
44
3
58
4
32
25
29
12
22
15
40
57
49
39
10
17
47
14
35
33
20
16
56
45
11
30
52
28
9
6
-1
EOF
